################### Instance Number: 9
Numero di nodi nella rete: 50
Numero di archi nella rete: 447
Numero di Ordini: 100
########################### CREATION OF THE ILP MODEL ############################
Start TIME to creation of the model: 2016-07-14 14:45:33.528000
FINISH TIME to creation of the model: 2016-07-14 14:45:41.592000
Impiegati 8.06399989128 secondi.
########################### WRITE THE LP MODEL ############################
############################ INIZIO A RISOLVERE IL PROBLEMA ##########################

Gurobi Optimizer version 6.5.1 build v6.5.1rc3 (win64)
Copyright (c) 2016, Gurobi Optimization, Inc.

Read LP format model from file C:\Users\Trappola\AppData\Local\Temp\8648-pulp.lp
Reading time = 0.31 seconds
(null): 5547 rows, 44700 columns, 178800 nonzeros
Optimize a model with 5547 rows, 44700 columns and 178800 nonzeros
Coefficient statistics:
  Matrix range    [1e+00, 1e+01]
  Objective range [1e+01, 3e+03]
  Bounds range    [1e+00, 1e+00]
  RHS range       [1e+00, 2e+02]
Found heuristic solution: objective 1.01334e+06
Presolve time: 0.34s
Presolved: 5547 rows, 44700 columns, 169600 nonzeros
Variable types: 0 continuous, 44700 integer (44700 binary)

Root relaxation: objective 1.944369e+05, 1690 iterations, 0.06 seconds

    Nodes    |    Current Node    |     Objective Bounds      |     Work
 Expl Unexpl |  Obj  Depth IntInf | Incumbent    BestBd   Gap | It/Node Time

     0     0 194436.938    0  132 1013344.65 194436.938  80.8%     -    0s
H    0     0                    200100.36600 194436.938  2.83%     -    0s
H    0     0                    199125.90030 194436.938  2.35%     -    1s
H    0     0                    198973.05910 194436.938  2.28%     -    1s
     0     0 196483.262    0  159 198973.059 196483.262  1.25%     -    1s
H    0     0                    198528.80520 196483.262  1.03%     -    1s
     0     0 196752.544    0  158 198528.805 196752.544  0.89%     -    1s
     0     0 196916.233    0  199 198528.805 196916.233  0.81%     -    2s
     0     0 196916.233    0  131 198528.805 196916.233  0.81%     -    3s
H    0     0                    198023.08600 196916.233  0.56%     -    3s
     0     0 196916.233    0  177 198023.086 196916.233  0.56%     -    3s
     0     0 196916.233    0  198 198023.086 196916.233  0.56%     -    3s
     0     0 197062.870    0  238 198023.086 197062.870  0.48%     -    4s
     0     0 197062.870    0   96 198023.086 197062.870  0.48%     -    4s
H    0     0                    197664.19260 197062.870  0.30%     -    4s
     0     0 197062.870    0  151 197664.193 197062.870  0.30%     -    4s
     0     0 197062.870    0  214 197664.193 197062.870  0.30%     -    5s
     0     0 197078.555    0  210 197664.193 197078.555  0.30%     -    5s
     0     0 197078.555    0   67 197664.193 197078.555  0.30%     -    5s
     0     0 197078.555    0  114 197664.193 197078.555  0.30%     -    5s
     0     0 197078.555    0  153 197664.193 197078.555  0.30%     -    5s
     0     0 197081.296    0  175 197664.193 197081.296  0.29%     -    5s
     0     0 197174.851    0  148 197664.193 197174.851  0.25%     -    5s
     0     0 197224.626    0  195 197664.193 197224.626  0.22%     -    6s
     0     0 197224.626    0   57 197664.193 197224.626  0.22%     -    6s
     0     0 197224.626    0   96 197664.193 197224.626  0.22%     -    6s
     0     0 197224.626    0  125 197664.193 197224.626  0.22%     -    6s
     0     0 197224.626    0  143 197664.193 197224.626  0.22%     -    6s
     0     0 197224.626    0  131 197664.193 197224.626  0.22%     -    6s
     0     0 197258.445    0   93 197664.193 197258.445  0.21%     -    6s
     0     0 197272.350    0  133 197664.193 197272.350  0.20%     -    6s
     0     0 197305.712    0  151 197664.193 197305.712  0.18%     -    6s
     0     0 197305.712    0   49 197664.193 197305.712  0.18%     -    6s
     0     0 197305.712    0   78 197664.193 197305.712  0.18%     -    6s
     0     0 197305.712    0   81 197664.193 197305.712  0.18%     -    6s
     0     0 197305.712    0  110 197664.193 197305.712  0.18%     -    6s
H    0     0                    197586.05110 197305.712  0.14%     -    6s
     0     0 197305.712    0  104 197586.051 197305.712  0.14%     -    6s
     0     0 197326.073    0  113 197586.051 197326.073  0.13%     -    7s
     0     0 197326.073    0   39 197586.051 197326.073  0.13%     -    7s
     0     0 197326.073    0   66 197586.051 197326.073  0.13%     -    7s
     0     0 197326.073    0   93 197586.051 197326.073  0.13%     -    7s
     0     0 197326.073    0   94 197586.051 197326.073  0.13%     -    7s
     0     0 197326.073    0   94 197586.051 197326.073  0.13%     -    7s
     0     0 197326.073    0  101 197586.051 197326.073  0.13%     -    7s
     0     0 197326.073    0   92 197586.051 197326.073  0.13%     -    7s
     0     0 197342.460    0  104 197586.051 197342.460  0.12%     -    7s
     0     0 197342.460    0   35 197586.051 197342.460  0.12%     -    7s
     0     0 197342.460    0   61 197586.051 197342.460  0.12%     -    7s
     0     0 197342.460    0   69 197586.051 197342.460  0.12%     -    7s
     0     0 197342.460    0   91 197586.051 197342.460  0.12%     -    7s
     0     0 197342.460    0   85 197586.051 197342.460  0.12%     -    7s
     0     0 197342.460    0   43 197586.051 197342.460  0.12%     -    7s
     0     0 197342.460    0   41 197586.051 197342.460  0.12%     -    7s
     0     0 197342.460    0   96 197586.051 197342.460  0.12%     -    7s
     0     0 197363.186    0  109 197586.051 197363.186  0.11%     -    7s
     0     0 197380.549    0   94 197586.051 197380.549  0.10%     -    7s
     0     0 197380.549    0   32 197586.051 197380.549  0.10%     -    7s
     0     0 197380.549    0   42 197586.051 197380.549  0.10%     -    7s
     0     0 197380.549    0   55 197586.051 197380.549  0.10%     -    7s
     0     0 197380.549    0   85 197586.051 197380.549  0.10%     -    7s
     0     0 197380.549    0   54 197586.051 197380.549  0.10%     -    7s
     0     0 197380.549    0   95 197586.051 197380.549  0.10%     -    7s
     0     0 197380.549    0   45 197586.051 197380.549  0.10%     -    7s
     0     0 197380.549    0   76 197586.051 197380.549  0.10%     -    7s
     0     0 197380.549    0   78 197586.051 197380.549  0.10%     -    7s
     0     0 197389.471    0   61 197586.051 197389.471  0.10%     -    7s
     0     0 197389.471    0   30 197586.051 197389.471  0.10%     -    7s
     0     0 197389.471    0   40 197586.051 197389.471  0.10%     -    7s
     0     0 197389.471    0   54 197586.051 197389.471  0.10%     -    7s
     0     0 197389.471    0   59 197586.051 197389.471  0.10%     -    7s
     0     0 197389.471    0   77 197586.051 197389.471  0.10%     -    7s
     0     0 197389.471    0   74 197586.051 197389.471  0.10%     -    7s
     0     0 197403.686    0   79 197586.051 197403.686  0.09%     -    7s
     0     0 197415.476    0   48 197586.051 197415.476  0.09%     -    7s
     0     0 197418.625    0   84 197586.051 197418.625  0.08%     -    7s
     0     0 197420.970    0   89 197586.051 197420.970  0.08%     -    7s
     0     0 197420.970    0   28 197586.051 197420.970  0.08%     -    7s
     0     0 197420.970    0   39 197586.051 197420.970  0.08%     -    7s
     0     0 197420.970    0   56 197586.051 197420.970  0.08%     -    7s
     0     0 197420.970    0   73 197586.051 197420.970  0.08%     -    7s
     0     0 197420.970    0   82 197586.051 197420.970  0.08%     -    7s
     0     0 197420.970    0   51 197586.051 197420.970  0.08%     -    7s
     0     0 197420.970    0   67 197586.051 197420.970  0.08%     -    7s
     0     0 197421.278    0   70 197586.051 197421.278  0.08%     -    7s
     0     2 197421.278    0   70 197586.051 197421.278  0.08%     -    7s

Cutting planes:
  Gomory: 1
  Cover: 29
  Clique: 1
  MIR: 27
  GUB cover: 4

Explored 48 nodes (10986 simplex iterations) in 7.88 seconds
Thread count was 8 (of 8 available processors)

Optimal solution found (tolerance 1.00e-04)
Best objective 1.975860511000e+05, best bound 1.975860511000e+05, gap 0.0%

Wrote result file 'C:\Users\Trappola\AppData\Local\Temp\8648-pulp.sol'

('Status:', 'Optimal')
('Total Cost of Ingredients per can = ', 197586.0511000001)
